p cnf 108 344
6 61 0
-6 -61 0
49 102 0
-49 -102 0
1 55 0
-1 -55 0
1 2 56 0
-1 -2 0
-1 -56 0
-2 -56 0
2 3 57 0
-2 -3 0
-2 -57 0
-3 -57 0
3 4 58 0
-3 -4 0
-3 -58 0
-4 -58 0
4 5 59 0
-4 -5 0
-4 -59 0
-5 -59 0
5 6 60 0
-5 -6 0
-5 -60 0
-6 -60 0
49 50 103 0
-49 -50 0
-49 -103 0
-50 -103 0
50 51 104 0
-50 -51 0
-50 -104 0
-51 -104 0
51 52 105 0
-51 -52 0
-51 -105 0
-52 -105 0
52 53 106 0
-52 -53 0
-52 -106 0
-53 -106 0
53 54 107 0
-53 -54 0
-53 -107 0
-54 -107 0
54 108 0
-54 -108 0
7 62 0
-7 -62 0
14 62 70 0
-14 -62 0
-14 -70 0
-62 -70 0
21 70 78 0
-21 -70 0
-21 -78 0
-70 -78 0
28 78 86 0
-28 -78 0
-28 -86 0
-78 -86 0
35 86 94 0
-35 -86 0
-35 -94 0
-86 -94 0
42 94 102 0
-42 -94 0
-42 -102 0
-94 -102 0
13 61 69 0
-13 -61 0
-13 -69 0
-61 -69 0
20 69 77 0
-20 -69 0
-20 -77 0
-69 -77 0
27 77 85 0
-27 -77 0
-27 -85 0
-77 -85 0
34 85 93 0
-34 -85 0
-34 -93 0
-85 -93 0
41 93 101 0
-41 -93 0
-41 -101 0
-93 -101 0
48 101 0
-48 -101 0
7 8 55 63 0
-7 -8 0
-7 -55 0
-7 -63 0
-8 -55 0
-8 -63 0
-55 -63 0
8 9 56 64 0
-8 -9 0
-8 -56 0
-8 -64 0
-9 -56 0
-9 -64 0
-56 -64 0
9 10 57 65 0
-9 -10 0
-9 -57 0
-9 -65 0
-10 -57 0
-10 -65 0
-57 -65 0
10 11 58 66 0
-10 -11 0
-10 -58 0
-10 -66 0
-11 -58 0
-11 -66 0
-58 -66 0
11 12 59 67 0
-11 -12 0
-11 -59 0
-11 -67 0
-12 -59 0
-12 -67 0
-59 -67 0
12 13 60 68 0
-12 -13 0
-12 -60 0
-12 -68 0
-13 -60 0
-13 -68 0
-60 -68 0
14 15 63 71 0
-14 -15 0
-14 -63 0
-14 -71 0
-15 -63 0
-15 -71 0
-63 -71 0
15 16 64 72 0
-15 -16 0
-15 -64 0
-15 -72 0
-16 -64 0
-16 -72 0
-64 -72 0
16 17 65 73 0
-16 -17 0
-16 -65 0
-16 -73 0
-17 -65 0
-17 -73 0
-65 -73 0
17 18 66 74 0
-17 -18 0
-17 -66 0
-17 -74 0
-18 -66 0
-18 -74 0
-66 -74 0
18 19 67 75 0
-18 -19 0
-18 -67 0
-18 -75 0
-19 -67 0
-19 -75 0
-67 -75 0
19 20 68 76 0
-19 -20 0
-19 -68 0
-19 -76 0
-20 -68 0
-20 -76 0
-68 -76 0
21 22 71 79 0
-21 -22 0
-21 -71 0
-21 -79 0
-22 -71 0
-22 -79 0
-71 -79 0
22 23 72 80 0
-22 -23 0
-22 -72 0
-22 -80 0
-23 -72 0
-23 -80 0
-72 -80 0
23 24 73 81 0
-23 -24 0
-23 -73 0
-23 -81 0
-24 -73 0
-24 -81 0
-73 -81 0
24 25 74 82 0
-24 -25 0
-24 -74 0
-24 -82 0
-25 -74 0
-25 -82 0
-74 -82 0
25 26 75 83 0
-25 -26 0
-25 -75 0
-25 -83 0
-26 -75 0
-26 -83 0
-75 -83 0
26 27 76 84 0
-26 -27 0
-26 -76 0
-26 -84 0
-27 -76 0
-27 -84 0
-76 -84 0
28 29 79 87 0
-28 -29 0
-28 -79 0
-28 -87 0
-29 -79 0
-29 -87 0
-79 -87 0
29 30 80 88 0
-29 -30 0
-29 -80 0
-29 -88 0
-30 -80 0
-30 -88 0
-80 -88 0
30 31 81 89 0
-30 -31 0
-30 -81 0
-30 -89 0
-31 -81 0
-31 -89 0
-81 -89 0
31 32 82 90 0
-31 -32 0
-31 -82 0
-31 -90 0
-32 -82 0
-32 -90 0
-82 -90 0
32 33 83 91 0
-32 -33 0
-32 -83 0
-32 -91 0
-33 -83 0
-33 -91 0
-83 -91 0
33 34 84 92 0
-33 -34 0
-33 -84 0
-33 -92 0
-34 -84 0
-34 -92 0
-84 -92 0
35 36 87 95 0
-35 -36 0
-35 -87 0
-35 -95 0
-36 -87 0
-36 -95 0
-87 -95 0
36 37 88 96 0
-36 -37 0
-36 -88 0
-36 -96 0
-37 -88 0
-37 -96 0
-88 -96 0
37 38 89 97 0
-37 -38 0
-37 -89 0
-37 -97 0
-38 -89 0
-38 -97 0
-89 -97 0
38 39 90 98 0
-38 -39 0
-38 -90 0
-38 -98 0
-39 -90 0
-39 -98 0
-90 -98 0
39 40 91 99 0
-39 -40 0
-39 -91 0
-39 -99 0
-40 -91 0
-40 -99 0
-91 -99 0
40 41 92 100 0
-40 -41 0
-40 -92 0
-40 -100 0
-41 -92 0
-41 -100 0
-92 -100 0
42 43 95 103 0
-42 -43 0
-42 -95 0
-42 -103 0
-43 -95 0
-43 -103 0
-95 -103 0
43 44 96 104 0
-43 -44 0
-43 -96 0
-43 -104 0
-44 -96 0
-44 -104 0
-96 -104 0
44 45 97 105 0
-44 -45 0
-44 -97 0
-44 -105 0
-45 -97 0
-45 -105 0
-97 -105 0
45 46 98 106 0
-45 -46 0
-45 -98 0
-45 -106 0
-46 -98 0
-46 -106 0
-98 -106 0
46 47 99 107 0
-46 -47 0
-46 -99 0
-46 -107 0
-47 -99 0
-47 -107 0
-99 -107 0
47 48 100 108 0
-47 -48 0
-47 -100 0
-47 -108 0
-48 -100 0
-48 -108 0
-100 -108 0
